(set-logic ALL)
(declare-const k Int)
(declare-fun C1 () (_ BitVec k))
(declare-fun %X () (_ BitVec k))
(declare-fun C2 () (_ BitVec k))
(assert (let ((_let_0 (bvslt %X C1))) (and (bvslt C1 C2) (= C2 (bvshl (_ bv1 k) (bvsub (_ bv4 k) (_ bv1 k)))) (not (= (or _let_0 (bvsgt %X C2)) _let_0)))))
(assert true)
(check-sat)